(set-info :smt-lib-version 2.6)
(set-logic UF)
(set-info :source |Benchmarks from the paper: "Extending Sledgehammer with SMT Solvers" by Jasmin Blanchette, Sascha Bohme, and Lawrence C. Paulson, CADE 2011.  Translated to SMT2 by Andrew Reynolds and Morgan Deters.|)
(set-info :category "industrial")
(set-info :status unknown)
(declare-sort S1 0)
(declare-sort S2 0)
(declare-sort S3 0)
(declare-sort S4 0)
(declare-sort S5 0)
(declare-sort S6 0)
(declare-sort S7 0)
(declare-sort S8 0)
(declare-sort S9 0)
(declare-sort S10 0)
(declare-sort S11 0)
(declare-sort S12 0)
(declare-sort S13 0)
(declare-sort S14 0)
(declare-sort S15 0)
(declare-sort S16 0)
(declare-sort S17 0)
(declare-sort S18 0)
(declare-sort S19 0)
(declare-sort S20 0)
(declare-sort S21 0)
(declare-sort S22 0)
(declare-sort S23 0)
(declare-fun f1 () S1)
(declare-fun f2 () S1)
(declare-fun f3 (S3 S4 S5 S6 S2) S1)
(declare-fun f4 () S3)
(declare-fun f5 () S4)
(declare-fun f6 () S5)
(declare-fun f7 (S7 S8) S6)
(declare-fun f8 () S7)
(declare-fun f9 () S8)
(declare-fun f10 (S3 S2 S2) S1)
(declare-fun f11 () S2)
(declare-fun f12 (S9) S10)
(declare-fun f13 (S11 S12) S9)
(declare-fun f14 () S11)
(declare-fun f15 (S8 S8) S12)
(declare-fun f16 () S8)
(declare-fun f17 () S8)
(declare-fun f18 (S8) S10)
(declare-fun f19 (S3 S5 S13) S1)
(declare-fun f20 (S14 S15) S13)
(declare-fun f21 (S16 S4) S14)
(declare-fun f22 () S16)
(declare-fun f23 () S15)
(declare-fun f24 (S17 S6) S6)
(declare-fun f25 (S18 S11) S17)
(declare-fun f26 (S19 S6) S18)
(declare-fun f27 () S19)
(declare-fun f28 (S20 S3) S1)
(declare-fun f29 () S20)
(declare-fun f30 () S2)
(declare-fun f31 (S21 S6) S17)
(declare-fun f32 (S22 S6) S21)
(declare-fun f33 () S22)
(declare-fun f34 (S4 S8) S23)
(declare-fun f35 (S2) S23)
(declare-fun f36 (S4 S4) S1)
(declare-fun f37 (S3 S4 S8 S2) S1)
(declare-fun f38 () S11)
(declare-fun f39 (S3 S6 S13 S6 S13) S1)
(declare-fun f40 (S3 S6 S13 S6 S13) S1)
(assert (not (= f1 f2)))
(assert (not (exists ((?v0 S2)) (and (= (f3 f4 f5 f6 (f7 f8 f9) ?v0) f1) (= (f10 f4 ?v0 f11) f1)))))
(assert (= (f12 (f13 f14 (f15 f16 f17))) (f18 f9)))
(assert (= (f19 f4 f6 (f20 (f21 f22 f5) f23)) f1))
(assert (= (f3 f4 f5 f6 (f24 (f25 (f26 f27 (f7 f8 f16)) f14) (f7 f8 f17)) f11) f1))
(assert (= (f19 f4 f6 (f20 (f21 f22 f5) f23)) f1))
(assert (= (f12 (f13 f14 (f15 f16 f17))) (f18 f9)))
(assert (= (f3 f4 f5 f6 (f24 (f25 (f26 f27 (f7 f8 f16)) f14) (f7 f8 f17)) f11) f1))
(assert (= (f28 f29 f4) f1))
(assert (forall ((?v0 S3) (?v1 S2)) (= (f10 ?v0 ?v1 ?v1) f1)))
(assert (forall ((?v0 S3) (?v1 S2) (?v2 S2) (?v3 S2)) (=> (= (f10 ?v0 ?v1 ?v2) f1) (=> (= (f10 ?v0 ?v2 ?v3) f1) (= (f10 ?v0 ?v1 ?v3) f1)))))
(assert (forall ((?v0 S8) (?v1 S8)) (= (= (f7 f8 ?v0) (f7 f8 ?v1)) (= ?v0 ?v1))))
(assert (forall ((?v0 S8) (?v1 S6) (?v2 S11) (?v3 S6)) (not (= (f7 f8 ?v0) (f24 (f25 (f26 f27 ?v1) ?v2) ?v3)))))
(assert (forall ((?v0 S6) (?v1 S11) (?v2 S6) (?v3 S8)) (not (= (f24 (f25 (f26 f27 ?v0) ?v1) ?v2) (f7 f8 ?v3)))))
(assert (forall ((?v0 S3) (?v1 S4) (?v2 S5) (?v3 S6) (?v4 S6) (?v5 S2) (?v6 S6) (?v7 S2) (?v8 S2)) (let ((?v_0 (= (f10 ?v0 ?v5 ?v7) f1)) (?v_1 (= (f10 ?v0 ?v7 ?v5) f1))) (=> (= (f3 ?v0 ?v1 ?v2 ?v3 f30) f1) (=> (= (f3 ?v0 ?v1 ?v2 ?v4 ?v5) f1) (=> (= (f3 ?v0 ?v1 ?v2 ?v6 ?v7) f1) (=> (or ?v_0 ?v_1) (=> (=> ?v_0 (= ?v8 ?v7)) (=> (=> ?v_1 (= ?v8 ?v5)) (= (f3 ?v0 ?v1 ?v2 (f24 (f31 (f32 f33 ?v3) ?v4) ?v6) ?v8) f1))))))))))
(assert (forall ((?v0 S4) (?v1 S8) (?v2 S2) (?v3 S3) (?v4 S5)) (=> (= (f34 ?v0 ?v1) (f35 ?v2)) (= (f3 ?v3 ?v0 ?v4 (f7 f8 ?v1) ?v2) f1))))
(assert (forall ((?v0 S3) (?v1 S4) (?v2 S5) (?v3 S6) (?v4 S2) (?v5 S4)) (=> (= (f3 ?v0 ?v1 ?v2 ?v3 ?v4) f1) (=> (= (f36 ?v1 ?v5) f1) (= (f3 ?v0 ?v5 ?v2 ?v3 ?v4) f1)))))
(assert (forall ((?v0 S3) (?v1 S4) (?v2 S5) (?v3 S6) (?v4 S6) (?v5 S6) (?v6 S2)) (=> (= (f3 ?v0 ?v1 ?v2 (f24 (f31 (f32 f33 ?v3) ?v4) ?v5) ?v6) f1) (=> (forall ((?v7 S2) (?v8 S2)) (let ((?v_0 (= (f10 ?v0 ?v7 ?v8) f1)) (?v_1 (= (f10 ?v0 ?v8 ?v7) f1))) (=> (= (f3 ?v0 ?v1 ?v2 ?v3 f30) f1) (=> (= (f3 ?v0 ?v1 ?v2 ?v4 ?v7) f1) (=> (= (f3 ?v0 ?v1 ?v2 ?v5 ?v8) f1) (=> (or ?v_0 ?v_1) (=> (=> ?v_0 (= ?v6 ?v8)) (=> (=> ?v_1 (= ?v6 ?v7)) false)))))))) false))))
(assert (forall ((?v0 S3) (?v1 S4) (?v2 S8) (?v3 S2) (?v4 S2)) (=> (= (f37 ?v0 ?v1 ?v2 ?v3) f1) (=> (= (f10 ?v0 ?v3 ?v4) f1) (= (f37 ?v0 ?v1 ?v2 ?v4) f1)))))
(assert (forall ((?v0 S6) (?v1 S6) (?v2 S6) (?v3 S6) (?v4 S11) (?v5 S6)) (not (= (f24 (f31 (f32 f33 ?v0) ?v1) ?v2) (f24 (f25 (f26 f27 ?v3) ?v4) ?v5)))))
(assert (forall ((?v0 S6) (?v1 S11) (?v2 S6) (?v3 S6) (?v4 S6) (?v5 S6)) (not (= (f24 (f25 (f26 f27 ?v0) ?v1) ?v2) (f24 (f31 (f32 f33 ?v3) ?v4) ?v5)))))
(assert (forall ((?v0 S6) (?v1 S6) (?v2 S6) (?v3 S6) (?v4 S6) (?v5 S6)) (= (= (f24 (f31 (f32 f33 ?v0) ?v1) ?v2) (f24 (f31 (f32 f33 ?v3) ?v4) ?v5)) (and (= ?v0 ?v3) (and (= ?v1 ?v4) (= ?v2 ?v5))))))
(assert (forall ((?v0 S6) (?v1 S11) (?v2 S6) (?v3 S6) (?v4 S11) (?v5 S6)) (= (= (f24 (f25 (f26 f27 ?v0) ?v1) ?v2) (f24 (f25 (f26 f27 ?v3) ?v4) ?v5)) (and (= ?v0 ?v3) (and (= ?v1 ?v4) (= ?v2 ?v5))))))
(assert (forall ((?v0 S4) (?v1 S4) (?v2 S3) (?v3 S8) (?v4 S2)) (=> (= (f36 ?v0 ?v1) f1) (=> (= (f37 ?v2 ?v0 ?v3 ?v4) f1) (= (f37 ?v2 ?v1 ?v3 ?v4) f1)))))
(assert (forall ((?v0 S4) (?v1 S8) (?v2 S2) (?v3 S3)) (=> (= (f34 ?v0 ?v1) (f35 ?v2)) (= (f37 ?v3 ?v0 ?v1 ?v2) f1))))
(assert (forall ((?v0 S3) (?v1 S4) (?v2 S8) (?v3 S2)) (= (= (f37 ?v0 ?v1 ?v2 ?v3) f1) (exists ((?v4 S2)) (and (= (f34 ?v1 ?v2) (f35 ?v4)) (= (f10 ?v0 ?v4 ?v3) f1))))))
(assert (forall ((?v0 S6) (?v1 S6) (?v2 S6) (?v3 S8)) (not (= (f24 (f31 (f32 f33 ?v0) ?v1) ?v2) (f7 f8 ?v3)))))
(assert (forall ((?v0 S8) (?v1 S6) (?v2 S6) (?v3 S6)) (not (= (f7 f8 ?v0) (f24 (f31 (f32 f33 ?v1) ?v2) ?v3)))))
(assert (forall ((?v0 S4) (?v1 S4) (?v2 S8) (?v3 S2)) (let ((?v_0 (f35 ?v3))) (=> (= (f36 ?v0 ?v1) f1) (=> (= (f34 ?v0 ?v2) ?v_0) (= (f34 ?v1 ?v2) ?v_0))))))
(assert (forall ((?v0 S4)) (= (f36 ?v0 ?v0) f1)))
(assert (forall ((?v0 S3) (?v1 S4) (?v2 S5) (?v3 S6) (?v4 S2) (?v5 S6) (?v6 S2)) (=> (= (f3 ?v0 ?v1 ?v2 ?v3 ?v4) f1) (=> (= (f3 ?v0 ?v1 ?v2 ?v5 ?v6) f1) (= (f3 ?v0 ?v1 ?v2 (f24 (f25 (f26 f27 ?v3) f38) ?v5) f30) f1)))))
(assert (forall ((?v0 S11) (?v1 S8) (?v2 S8) (?v3 S8) (?v4 S3) (?v5 S13)) (=> (= (f12 (f13 ?v0 (f15 ?v1 ?v2))) (f18 ?v3)) (= (f39 ?v4 (f24 (f25 (f26 f27 (f7 f8 ?v1)) ?v0) (f7 f8 ?v2)) ?v5 (f7 f8 ?v3) ?v5) f1))))
(assert (forall ((?v0 S3) (?v1 S6) (?v2 S13) (?v3 S8) (?v4 S13) (?v5 S6) (?v6 S8) (?v7 S13) (?v8 S11) (?v9 S8)) (=> (= (f40 ?v0 ?v1 ?v2 (f7 f8 ?v3) ?v4) f1) (=> (= (f40 ?v0 ?v5 ?v4 (f7 f8 ?v6) ?v7) f1) (=> (= (f12 (f13 ?v8 (f15 ?v3 ?v6))) (f18 ?v9)) (= (f40 ?v0 (f24 (f25 (f26 f27 ?v1) ?v8) ?v5) ?v2 (f7 f8 ?v9) ?v7) f1))))))
(check-sat)
(exit)
